Cost: 329
0-27-31-30-20-51-33-79-29-24-55-25-39-23-75-22-41-74-73-21-40-26-28-0
0-53-13-94-6-96-99-59-92-98-37-100-14-38-44-16-17-45-46-47-19-48-82-18-52-0
Cost: 332
0-27-31-30-20-51-33-77-3-29-24-55-25-39-23-41-22-74-73-21-40-26-28-0
0-53-13-94-96-99-59-92-37-98-85-91-14-38-44-16-17-45-46-47-19-48-82-18-52-0
Cost: 330
0-52-18-82-48-19-47-46-8-45-17-16-44-38-14-100-98-37-92-59-99-96-94-13-53-0
0-27-31-30-20-51-33-79-29-24-55-25-39-23-75-41-22-74-73-21-40-26-28-0
Cost: 328
0-28-26-40-21-73-74-22-41-75-23-39-25-55-24-29-79-33-51-20-30-70-31-27-0
0-52-18-82-48-19-47-46-45-17-16-44-38-14-100-37-98-93-99-96-6-94-13-53-0
Cost: 331
0-28-26-40-21-73-74-22-41-23-39-25-55-24-29-77-3-33-51-20-30-70-31-27-0
0-53-13-94-95-97-92-37-98-85-91-14-38-44-16-17-45-46-47-19-48-82-18-52-0
Cost: 329
0-28-26-40-21-73-74-22-41-75-23-39-25-55-24-29-79-33-51-20-30-70-31-27-0
0-53-13-94-95-97-92-98-37-100-14-38-44-16-17-45-8-46-47-19-48-82-18-52-0
Cost: 329
0-53-13-94-6-96-99-59-92-98-37-100-14-38-44-16-17-45-46-47-19-48-82-18-52-0
0-28-26-40-21-73-74-41-22-75-23-39-25-55-24-29-79-33-51-20-30-31-27-0
Cost: 331
0-53-13-94-95-97-92-37-98-100-14-38-44-16-17-45-46-47-19-48-82-18-52-0
0-28-26-40-21-73-74-22-41-23-39-25-55-24-29-3-77-79-33-51-20-30-70-31-27-0
Cost: 330
0-52-18-82-48-19-47-46-8-45-17-16-44-38-14-100-98-37-92-95-94-13-53-0
0-28-26-40-21-73-74-22-41-75-23-39-25-55-24-29-79-33-81-51-20-30-70-31-27-0
Cost: 330
0-27-31-30-20-51-33-79-29-24-55-25-39-23-75-22-41-74-73-21-40-26-28-0
0-52-18-82-48-8-45-17-16-44-38-14-43-15-42-100-98-37-92-59-99-96-94-13-53-0
Cost: 330
0-27-31-70-30-20-51-33-81-79-29-24-55-25-39-23-75-41-22-74-73-21-40-26-28-0
0-53-13-95-97-92-98-37-100-14-38-44-16-17-45-8-46-47-19-48-82-18-52-0
Cost: 330
0-27-31-70-30-20-51-81-33-79-29-24-55-25-39-23-75-41-22-74-73-21-40-26-28-0
0-53-13-95-97-92-37-98-100-14-38-44-16-17-45-8-46-47-19-48-82-18-52-0
Cost: 330
0-27-31-70-30-20-51-33-81-79-29-24-55-25-39-23-75-41-22-74-73-21-40-26-28-0
0-53-13-94-95-92-98-37-100-42-15-43-14-38-44-16-17-45-8-48-82-18-52-0
Cost: 331
0-52-18-82-48-19-47-46-45-17-16-44-38-14-91-100-37-98-93-99-96-94-13-53-0
0-28-26-40-21-73-74-22-41-23-39-25-55-24-29-3-77-33-51-20-30-70-31-27-0
Cost: 331
0-27-31-70-30-20-51-33-77-3-29-24-55-25-39-23-41-22-74-73-21-40-26-28-0
0-53-13-94-96-99-93-98-37-100-91-14-38-44-16-17-45-46-47-19-48-82-18-52-0
Cost: 330
0-27-31-70-30-20-51-33-81-79-29-24-55-25-39-23-75-41-22-74-73-21-40-26-28-0
0-53-13-95-97-92-98-37-100-14-38-44-16-17-45-8-46-47-19-48-82-18-52-0
Cost: 330
0-27-31-70-30-20-51-33-81-79-29-24-55-25-39-23-75-41-22-74-73-21-40-26-28-0
0-53-13-95-97-92-98-37-100-14-38-44-16-17-45-8-46-47-19-48-82-18-52-0
Cost: 331
0-27-31-70-30-20-51-33-77-3-29-24-55-25-39-23-41-22-74-73-21-40-26-28-0
0-53-13-94-96-99-93-98-37-100-91-14-38-44-16-17-45-46-47-19-48-82-18-52-0
Cost: 330
0-53-13-94-96-99-59-92-98-37-100-42-15-43-14-38-44-16-17-45-8-48-82-18-52-0
0-27-31-30-20-51-33-79-29-24-55-25-39-23-75-41-22-74-73-21-40-26-28-0
Cost: 328
0-52-18-82-48-19-47-46-45-17-16-44-38-14-100-37-98-93-99-96-6-94-13-53-0
0-27-31-70-30-20-51-33-79-29-24-55-25-39-23-75-41-22-74-73-21-40-26-28-0
Cost: 328
0-28-26-40-21-73-74-41-22-75-23-39-25-55-24-29-79-33-51-20-30-70-31-27-0
0-53-13-94-6-96-99-93-98-37-100-14-38-44-16-17-45-46-47-19-48-82-18-52-0
Cost: 328
0-28-26-40-21-73-74-41-22-75-23-39-25-55-24-29-79-33-51-20-30-70-31-27-0
0-53-13-94-6-96-99-93-98-37-100-14-38-44-16-17-45-46-47-19-48-82-18-52-0
Cost: 329
0-28-26-40-21-73-74-22-41-75-23-39-25-55-24-29-79-33-51-20-30-70-31-27-0
0-52-18-82-48-8-45-17-16-44-38-14-43-15-42-100-37-98-93-99-96-94-13-53-0
Cost: 329
0-28-26-40-21-73-74-22-41-75-23-39-25-55-24-29-79-33-51-20-30-70-31-27-0
0-52-18-82-48-8-45-17-16-44-38-14-43-15-42-100-37-98-93-99-96-94-13-53-0
Cost: 328
0-52-18-82-48-19-47-46-45-17-16-44-38-14-100-37-98-93-99-96-6-94-13-53-0
0-28-26-40-21-73-74-41-22-75-23-39-25-55-24-29-79-33-51-20-30-70-31-27-0
Cost: 329
0-28-26-40-21-73-74-22-41-75-23-39-25-55-24-29-79-33-51-20-30-70-31-27-0
0-52-18-82-48-8-45-17-16-44-38-14-43-15-42-100-37-98-93-99-96-94-13-53-0
Cost: 328
0-52-18-82-48-19-47-46-45-17-16-44-38-14-100-37-98-93-99-96-6-94-13-53-0
0-27-31-70-30-20-51-33-79-29-24-55-25-39-23-75-41-22-74-73-21-40-26-28-0
Cost: 328
0-52-18-82-48-19-47-46-45-17-16-44-38-14-100-37-98-93-99-96-6-94-13-53-0
0-27-31-70-30-20-51-33-79-29-24-55-25-39-23-75-22-41-74-73-21-40-26-28-0
Cost: 329
0-28-26-40-21-73-74-41-22-75-23-39-25-55-24-29-79-33-51-20-30-70-31-27-0
0-52-18-82-48-8-45-17-16-44-38-14-43-15-42-100-37-98-93-99-96-94-13-53-0
Cost: 328
0-27-31-70-30-20-51-33-79-29-24-55-25-39-23-75-22-41-74-73-21-40-26-28-0
0-52-18-82-48-19-47-46-45-17-16-44-38-14-100-37-98-93-99-96-6-94-13-53-0
Cost: 328
0-53-13-94-6-96-99-93-98-37-100-14-38-44-16-17-45-46-47-19-48-82-18-52-0
0-27-31-70-30-20-51-33-79-29-24-55-25-39-23-75-22-41-74-73-21-40-26-28-0
Cost: 328
0-27-31-70-30-20-51-33-79-29-24-55-25-39-23-75-22-41-74-73-21-40-26-28-0
0-53-13-94-6-96-99-93-98-37-100-14-38-44-16-17-45-46-47-19-48-82-18-52-0
Cost: 328
0-27-31-70-30-20-51-33-79-29-24-55-25-39-23-75-22-41-74-73-21-40-26-28-0
0-53-13-94-6-96-99-93-98-37-100-14-38-44-16-17-45-46-47-19-48-82-18-52-0
